c description: There is a graph of 3 vertices with a 6-clique and a 8-coloring
c generator: CNFgen (0.9.0)
c copyright: (C) 2012-2020 Massimo Lauria <massimo.lauria@uniroma1.it>
c url: https://massimolauria.net/cnfgen
c
p cnf 45 270
-4 -5 0
-4 -6 0
-5 -6 0
4 5 6 0
-7 -8 0
-7 -9 0
-8 -9 0
7 8 9 0
-10 -11 0
-10 -12 0
-11 -12 0
10 11 12 0
-13 -14 0
-13 -15 0
-14 -15 0
13 14 15 0
-16 -17 0
-16 -18 0
-17 -18 0
16 17 18 0
-19 -20 0
-19 -21 0
-20 -21 0
19 20 21 0
-4 -7 0
-4 -10 0
-4 -13 0
-4 -16 0
-4 -19 0
-7 -10 0
-7 -13 0
-7 -16 0
-7 -19 0
-10 -13 0
-10 -16 0
-10 -19 0
-13 -16 0
-13 -19 0
-16 -19 0
-5 -8 0
-5 -11 0
-5 -14 0
-5 -17 0
-5 -20 0
-8 -11 0
-8 -14 0
-8 -17 0
-8 -20 0
-11 -14 0
-11 -17 0
-11 -20 0
-14 -17 0
-14 -20 0
-17 -20 0
-6 -9 0
-6 -12 0
-6 -15 0
-6 -18 0
-6 -21 0
-9 -12 0
-9 -15 0
-9 -18 0
-9 -21 0
-12 -15 0
-12 -18 0
-12 -21 0
-15 -18 0
-15 -21 0
-18 -21 0
1 -4 -8 0
1 -4 -11 0
1 -4 -14 0
1 -4 -17 0
1 -4 -20 0
1 -7 -5 0
1 -7 -11 0
1 -7 -14 0
1 -7 -17 0
1 -7 -20 0
1 -10 -5 0
1 -10 -8 0
1 -10 -14 0
1 -10 -17 0
1 -10 -20 0
1 -13 -5 0
1 -13 -8 0
1 -13 -11 0
1 -13 -17 0
1 -13 -20 0
1 -16 -5 0
1 -16 -8 0
1 -16 -11 0
1 -16 -14 0
1 -16 -20 0
1 -19 -5 0
1 -19 -8 0
1 -19 -11 0
1 -19 -14 0
1 -19 -17 0
2 -4 -9 0
2 -4 -12 0
2 -4 -15 0
2 -4 -18 0
2 -4 -21 0
2 -7 -6 0
2 -7 -12 0
2 -7 -15 0
2 -7 -18 0
2 -7 -21 0
2 -10 -6 0
2 -10 -9 0
2 -10 -15 0
2 -10 -18 0
2 -10 -21 0
2 -13 -6 0
2 -13 -9 0
2 -13 -12 0
2 -13 -18 0
2 -13 -21 0
2 -16 -6 0
2 -16 -9 0
2 -16 -12 0
2 -16 -15 0
2 -16 -21 0
2 -19 -6 0
2 -19 -9 0
2 -19 -12 0
2 -19 -15 0
2 -19 -18 0
3 -5 -9 0
3 -5 -12 0
3 -5 -15 0
3 -5 -18 0
3 -5 -21 0
3 -8 -6 0
3 -8 -12 0
3 -8 -15 0
3 -8 -18 0
3 -8 -21 0
3 -11 -6 0
3 -11 -9 0
3 -11 -15 0
3 -11 -18 0
3 -11 -21 0
3 -14 -6 0
3 -14 -9 0
3 -14 -12 0
3 -14 -18 0
3 -14 -21 0
3 -17 -6 0
3 -17 -9 0
3 -17 -12 0
3 -17 -15 0
3 -17 -21 0
3 -20 -6 0
3 -20 -9 0
3 -20 -12 0
3 -20 -15 0
3 -20 -18 0
-22 -23 0
-22 -24 0
-22 -25 0
-22 -26 0
-22 -27 0
-22 -28 0
-22 -29 0
-23 -24 0
-23 -25 0
-23 -26 0
-23 -27 0
-23 -28 0
-23 -29 0
-24 -25 0
-24 -26 0
-24 -27 0
-24 -28 0
-24 -29 0
-25 -26 0
-25 -27 0
-25 -28 0
-25 -29 0
-26 -27 0
-26 -28 0
-26 -29 0
-27 -28 0
-27 -29 0
-28 -29 0
22 23 24 25 26 27 28 29 0
-30 -31 0
-30 -32 0
-30 -33 0
-30 -34 0
-30 -35 0
-30 -36 0
-30 -37 0
-31 -32 0
-31 -33 0
-31 -34 0
-31 -35 0
-31 -36 0
-31 -37 0
-32 -33 0
-32 -34 0
-32 -35 0
-32 -36 0
-32 -37 0
-33 -34 0
-33 -35 0
-33 -36 0
-33 -37 0
-34 -35 0
-34 -36 0
-34 -37 0
-35 -36 0
-35 -37 0
-36 -37 0
30 31 32 33 34 35 36 37 0
-38 -39 0
-38 -40 0
-38 -41 0
-38 -42 0
-38 -43 0
-38 -44 0
-38 -45 0
-39 -40 0
-39 -41 0
-39 -42 0
-39 -43 0
-39 -44 0
-39 -45 0
-40 -41 0
-40 -42 0
-40 -43 0
-40 -44 0
-40 -45 0
-41 -42 0
-41 -43 0
-41 -44 0
-41 -45 0
-42 -43 0
-42 -44 0
-42 -45 0
-43 -44 0
-43 -45 0
-44 -45 0
38 39 40 41 42 43 44 45 0
-1 -22 -30 0
-1 -23 -31 0
-1 -24 -32 0
-1 -25 -33 0
-1 -26 -34 0
-1 -27 -35 0
-1 -28 -36 0
-1 -29 -37 0
-2 -22 -38 0
-2 -23 -39 0
-2 -24 -40 0
-2 -25 -41 0
-2 -26 -42 0
-2 -27 -43 0
-2 -28 -44 0
-2 -29 -45 0
-3 -30 -38 0
-3 -31 -39 0
-3 -32 -40 0
-3 -33 -41 0
-3 -34 -42 0
-3 -35 -43 0
-3 -36 -44 0
-3 -37 -45 0